Translating instance to solver...

GLPSOL--GLPK LP/MIP Solver 5.0
Parameter(s) specified in the command line:
 --tmlim 28800 --mipgap 0.001 --write /tmp/tmpa6lzuem8.glpk.raw --wglp /tmp/tmpz_syqsut.glpk.glp
 --cpxlp /tmp/tmpvzehjp3s.pyomo.lp
Reading problem data from '/tmp/tmpvzehjp3s.pyomo.lp'...
/tmp/tmpvzehjp3s.pyomo.lp:728518: warning: lower bound of variable 'x2' redefined
/tmp/tmpvzehjp3s.pyomo.lp:728518: warning: upper bound of variable 'x2' redefined
123576 rows, 68087 columns, 289510 non-zeros
68087 integer variables, 68040 of which are binary
796558 lines were read
Writing problem data to '/tmp/tmpz_syqsut.glpk.glp'...
558562 lines were written
GLPK Integer Optimizer 5.0
123576 rows, 68087 columns, 289510 non-zeros
68087 integer variables, 68040 of which are binary
Preprocessing...
356 hidden packing inequaliti(es) were detected
18311 hidden covering inequaliti(es) were detected
221 constraint coefficient(s) were reduced
64925 rows, 25621 columns, 161471 non-zeros
25621 integer variables, 25575 of which are binary
Scaling...
 A: min|aij| =  1.000e+00  max|aij| =  4.700e+01  ratio =  4.700e+01
GM: min|aij| =  3.824e-01  max|aij| =  2.615e+00  ratio =  6.837e+00
EQ: min|aij| =  1.858e-01  max|aij| =  1.000e+00  ratio =  5.382e+00
2N: min|aij| =  1.250e-01  max|aij| =  1.438e+00  ratio =  1.150e+01
Constructing initial basis...
Size of triangular part is 64925
Solving LP relaxation...
GLPK Simplex Optimizer 5.0
64925 rows, 25621 columns, 161471 non-zeros
      0: obj =   0.000000000e+00 inf =   1.141e+02 (226)
Perturbing LP to avoid stalling [238]...
   1095: obj =   1.095995360e+01 inf =   1.155e-14 (0) 5
Removing LP perturbation [4014]...
*  4014: obj =   9.176730000e-01 inf =   1.110e-16 (0) 12
OPTIMAL LP SOLUTION FOUND
Integer optimization begins...
Long-step dual simplex will be used
+  4014: mip =     not found yet >=              -inf        (1; 0)
+  5430: mip =     not found yet >=   9.176730000e-01        (10; 2)
+  6246: mip =     not found yet >=   9.176730000e-01        (13; 5)
+  6730: mip =     not found yet >=   9.176730000e-01        (26; 5)
+  7113: mip =     not found yet >=   9.176730000e-01        (34; 8)
+  7791: mip =     not found yet >=   9.176730000e-01        (43; 8)
+  7847: mip =     not found yet >=   9.176730000e-01        (49; 8)
+  8861: mip =     not found yet >=   9.176730000e-01        (55; 9)
+  9745: mip =     not found yet >=   9.176730000e-01        (59; 12)
+  9799: mip =     not found yet >=   9.176730000e-01        (63; 12)
+  9995: mip =     not found yet >=   9.176730000e-01        (67; 12)
+ 10148: mip =     not found yet >=   9.176730000e-01        (72; 12)
Time used: 60.2 secs.  Memory used: 100.3 Mb.
+ 10244: mip =     not found yet >=   9.176730000e-01        (80; 12)
+ 11076: mip =     not found yet >=   9.176730000e-01        (85; 13)
+ 11101: mip =     not found yet >=   9.176730000e-01        (90; 13)
+ 11218: mip =     not found yet >=   9.176730000e-01        (95; 13)
+ 11824: mip =     not found yet >=   9.176730000e-01        (101; 14)
+ 12261: mip =     not found yet >=   9.176730000e-01        (107; 14)
+ 12897: mip =     not found yet >=   9.176730000e-01        (111; 16)
+ 13306: mip =     not found yet >=   9.176730000e-01        (118; 16)
+ 13838: mip =     not found yet >=   9.176730000e-01        (121; 17)
+ 13939: mip =     not found yet >=   9.176730000e-01        (125; 17)
+ 13966: mip =     not found yet >=   9.176730000e-01        (130; 17)
Time used: 120.3 secs.  Memory used: 101.4 Mb.
+ 14004: mip =     not found yet >=   9.176730000e-01        (136; 17)
+ 14349: mip =     not found yet >=   9.176730000e-01        (142; 20)
+ 15561: mip =     not found yet >=   9.176730000e-01        (150; 23)
+ 15590: mip =     not found yet >=   9.176730000e-01        (153; 23)
+ 16591: mip =     not found yet >=   9.176730000e-01        (165; 24)
+ 16765: mip =     not found yet >=   9.176730000e-01        (169; 24)
+ 17561: mip =     not found yet >=   9.176730000e-01        (172; 25)
+ 17727: mip =     not found yet >=   9.176730000e-01        (176; 25)
+ 17766: mip =     not found yet >=   9.176730000e-01        (180; 25)
+ 17807: mip =     not found yet >=   9.176730000e-01        (185; 25)
+ 17891: mip =     not found yet >=   9.176730000e-01        (192; 25)
Time used: 180.4 secs.  Memory used: 103.1 Mb.
+ 18574: mip =     not found yet >=   9.176730000e-01        (195; 26)
+ 18616: mip =     not found yet >=   9.176730000e-01        (198; 26)
+ 18850: mip =     not found yet >=   9.176730000e-01        (203; 26)
+ 18992: mip =     not found yet >=   9.176730000e-01        (210; 26)
+ 19617: mip =     not found yet >=   9.176730000e-01        (219; 27)
+ 19814: mip =     not found yet >=   9.176730000e-01        (226; 27)
+ 20498: mip =     not found yet >=   9.176730000e-01        (233; 29)
+ 21463: mip =     not found yet >=   9.176730000e-01        (236; 30)
+ 21591: mip =     not found yet >=   9.176730000e-01        (240; 30)
+ 22264: mip =     not found yet >=   9.176730000e-01        (242; 31)
+ 23069: mip =     not found yet >=   9.176730000e-01        (257; 32)
Time used: 241.7 secs.  Memory used: 105.5 Mb.
+ 23541: mip =     not found yet >=   9.176730000e-01        (260; 33)
+ 23692: mip =     not found yet >=   9.176730000e-01        (263; 33)
+ 24251: mip =     not found yet >=   9.176730000e-01        (267; 34)
+ 24661: >>>>>   9.176730000e-01 >=   9.176730000e-01   0.0% (274; 38)
+ 24661: mip =   9.176730000e-01 >=     tree is empty   0.0% (0; 623)
INTEGER OPTIMAL SOLUTION FOUND
Time used:   262.4 secs
Memory used: 120.7 Mb (126521349 bytes)
Writing MIP solution to '/tmp/tmpa6lzuem8.glpk.raw'...
191672 lines were written

Results:

E = 0.9176730000000001 mA
C = 15.0 points
C ~= 6.0 km^2

Minimum Epsilon for this instance = 14
Maximum Epsilon for this instance = 216
Current Epsilon = 14

Instance Maximum Epsilon Preprocessing Time: 0.010842323303222656 s

Time in solver (for this epsilon): 262.91449069976807 s
Elapsed time (for this epsilon): 266.75308632850647 s


Total elapsed time since execution of first epsilon: 191130.81716108322 s


Updated solution vectors:
sol_E = [0.9176730000000001]
sol_C = [15.0]
sol_eps = [14]
